Solver command line: ['C:\\gurobi1002\\win64\\bin\\gurobi.bat']

Set parameter Username
Academic license - for non-commercial use only - expires 2024-08-20
Read LP format model from file C:\Users\mhafeman\AppData\Local\Temp\tmpdn_0b1k1.pyomo.lp
Reading time = 0.01 seconds
obj: 529 rows, 528 columns, 1247 nonzeros
Gurobi Optimizer version 10.0.2 build v10.0.2rc0 (win64)

CPU model: AMD Ryzen 7 3800X 8-Core Processor, instruction set [SSE2|AVX|AVX2]
Thread count: 8 physical cores, 16 logical processors, using up to 16 threads

Optimize a model with 529 rows, 528 columns and 1247 nonzeros
Model fingerprint: 0x1c083f5a
Variable types: 408 continuous, 120 integer (120 binary)
Coefficient statistics:
  Matrix range     [2e-01, 1e+01]
  Objective range  [1e+01, 6e+01]
  Bounds range     [1e+00, 1e+00]
  RHS range        [2e-02, 2e+01]
Presolve removed 460 rows and 435 columns
Presolve time: 0.00s
Presolved: 69 rows, 93 columns, 184 nonzeros
Variable types: 70 continuous, 23 integer (23 binary)
Found heuristic solution: objective 272.0122400

Root relaxation: objective 2.012240e+00, 30 iterations, 0.00 seconds (0.00 work units)

    Nodes    |    Current Node    |     Objective Bounds      |     Work
 Expl Unexpl |  Obj  Depth IntInf | Incumbent    BestBd   Gap | It/Node Time

     0     0    2.01224    0    3  272.01224    2.01224  99.3%     -    0s
H    0     0                       2.0122400    2.01224  0.00%     -    0s
     0     0    2.01224    0    3    2.01224    2.01224  0.00%     -    0s

Explored 1 nodes (30 simplex iterations) in 0.01 seconds (0.00 work units)
Thread count was 16 (of 16 available processors)

Solution count 2: 2.01224 272.012 

Optimal solution found (tolerance 1.00e-04)
Best objective 2.012240000000e+00, best bound 2.012240000000e+00, gap 0.0000%

